1 1 2 0
1 -1 3 0
1 -1 -4 0
1 5 -2 0
1 5 6 0
1 5 7 0
1 -8 9 0
1 8 10 0
1 -8 -4 0
1 2 -8 0
1 2 1 0
1 4 11 0
1 4 -1 0
1 -4 -2 0
1 4 -5 0
1 4 12 0
1 9 -13 0
1 -9 8 0
1 -9 1 0
1 -3 8 0
1 3 -9 0
1 -3 -14 0
1 -15 16 0
1 15 -17 0
1 -15 -18 0
1 -17 2 0
1 -17 -4 0
1 19 20 0
1 -19 -21 0
1 -22 -23 0
1 22 -16 0
1 -22 -13 0
1 -22 20 0
1 -22 24 0
1 10 -22 0
1 -10 25 0
1 10 -19 0
1 -10 -15 0
1 16 -26 0
1 16 27 0
1 -16 8 0
1 -16 -10 0
1 -16 -19 0
1 6 -28 0
1 -6 -22 0
1 -6 17 0
1 6 8 0
1 6 29 0
1 23 -30 0
1 23 28 0
1 -23 17 0
1 -23 31 0
1 23 -32 0
1 23 15 0
1 33 -16 0
1 -33 -34 0
1 -33 -20 0
1 33 21 0
1 -35 28 0
1 35 -20 0
1 -35 10 0
1 -36 26 0
1 -36 34 0
1 36 -20 0
1 -36 21 0
1 26 -30 0
1 -26 34 0
1 -26 36 0
1 21 26 0
1 21 36 0
1 -21 -33 0
1 -20 -36 0
1 20 -21 0
1 -20 -37 0
1 -24 26 0
1 -24 -34 0
1 24 -37 0
1 -34 -26 0
1 -34 35 0
1 -34 -38 0
1 34 36 0
1 -34 33 0
1 34 37 0
1 -39 40 0
1 39 -41 0
1 42 43 0
1 -7 44 0
1 -7 45 0
1 7 46 0
1 47 -44 0
1 -47 48 0
1 -47 -45 0
1 47 46 0
1 -40 -49 0
1 40 42 0
1 -40 -18 0
1 -41 40 0
1 41 -49 0
1 -41 -42 0
1 -50 -51 0
1 -50 52 0
1 -50 -42 0
1 50 -53 0
1 -54 51 0
1 -54 -47 0
1 54 39 0
1 18 41 0
1 -18 -15 0
1 -49 -40 0
1 -49 -45 0
1 49 46 0
1 49 -18 0
1 49 -3 0
1 14 -13 0
1 14 -55 0
1 14 -9 0
1 14 -41 0
1 -14 45 0
1 -13 -46 0
1 -13 -22 0
1 13 -44 0
1 -13 9 0
1 -13 -3 0
1 44 30 0
1 -44 -56 0
1 44 47 0
1 -44 57 0
1 44 29 0
1 46 29 0
1 -46 14 0
1 -46 58 0
1 -46 -7 0
1 59 -60 0
1 -59 61 0
1 59 -62 0
1 59 -57 0
1 -59 -45 0
1 59 63 0
1 -59 14 0
1 45 57 0
1 45 -64 0
1 45 63 0
1 -32 28 0
1 -32 -65 0
1 -32 4 0
1 28 -23 0
1 28 66 0
1 -28 9 0
1 -28 2 0
1 28 6 0
1 -28 -67 0
1 29 -23 0
1 29 -55 0
1 29 66 0
1 -29 65 0
1 29 -67 0
1 30 11 0
1 -30 55 0
1 -30 -66 0
1 30 -46 0
1 -30 68 0
1 66 30 0
1 66 28 0
1 66 13 0
1 66 -69 0
1 -66 38 0
1 66 70 0
1 -66 -32 0
1 -67 -30 0
1 -67 -66 0
1 67 -14 0
1 55 -60 0
1 -55 -71 0
1 55 69 0
1 55 57 0
1 -55 65 0
1 -55 -72 0
1 -65 -57 0
1 65 32 0
1 -65 14 0
1 -65 -73 0
1 31 74 0
1 31 75 0
1 -75 -11 0
1 75 66 0
1 -75 67 0
1 75 -68 0
1 38 11 0
1 -38 -76 0
1 -38 -77 0
1 38 -78 0
1 78 34 0
1 78 66 0
1 78 38 0
1 78 74 0
1 -78 79 0
1 78 -25 0
1 -78 24 0
1 78 68 0
1 -77 -80 0
1 -77 -37 0
1 -11 -81 0
1 -11 -82 0
1 -11 -83 0
1 11 38 0
1 -11 77 0
1 -11 -29 0
1 -11 -4 0
1 -11 -84 0
1 11 85 0
1 11 37 0
1 74 30 0
1 -74 29 0
1 -74 -86 0
1 74 -72 0
1 74 -75 0
1 68 -38 0
1 68 -74 0
1 68 31 0
1 -83 11 0
1 83 -34 0
1 -83 -27 0
1 -83 20 0
1 -83 24 0
1 37 11 0
1 -37 -20 0
1 37 -77 0
1 37 79 0
1 82 87 0
1 -82 88 0
1 82 -77 0
1 -85 -11 0
1 85 87 0
1 -85 -77 0
1 -85 89 0
1 -25 -90 0
1 -25 83 0
1 -25 -91 0
1 27 -92 0
1 27 93 0
1 27 85 0
1 -27 -37 0
1 79 -94 0
1 79 -6 0
1 -79 -95 0
1 -79 -96 0
1 79 -84 0
1 79 78 0
1 -87 97 0
1 87 -83 0
1 87 38 0
1 -87 85 0
1 -98 88 0
1 -98 99 0
1 99 98 0
1 -99 -100 0
1 90 93 0
1 89 -101 0
1 89 98 0
1 89 88 0
1 -89 -102 0
1 -88 101 0
1 88 98 0
1 -88 -103 0
1 88 82 0
1 -88 99 0
1 100 -101 0
1 100 104 0
1 100 -98 0
1 -100 -105 0
1 104 100 0
1 -104 99 0
1 106 -43 0
1 -106 107 0
1 -43 -108 0
1 -43 109 0
1 43 110 0
1 111 109 0
1 -111 112 0
1 48 109 0
1 48 47 0
1 -48 -112 0
1 -48 111 0
1 107 -43 0
1 107 113 0
1 -107 111 0
1 109 48 0
1 -109 -53 0
1 109 111 0
1 110 -48 0
1 -108 -110 0
1 -108 111 0
1 -108 -106 0
1 114 -50 0
1 -114 -109 0
1 -114 112 0
1 -114 -115 0
1 -52 49 0
1 -52 54 0
1 53 -109 0
1 53 116 0
1 53 117 0
1 -53 -118 0
1 53 14 0
1 53 -107 0
1 -51 -50 0
1 -51 13 0
1 51 109 0
1 51 -116 0
1 -51 -119 0
1 -112 -51 0
1 -112 -52 0
1 -112 48 0
1 112 120 0
1 -112 -115 0
1 -112 114 0
1 -112 -111 0
1 119 -51 0
1 -119 48 0
1 -119 120 0
1 -116 121 0
1 116 -52 0
1 116 122 0
1 116 48 0
1 -116 120 0
1 -116 111 0
1 63 -40 0
1 63 -61 0
1 -63 -112 0
1 63 118 0
1 -63 115 0
1 63 -123 0
1 -61 124 0
1 -61 117 0
1 64 125 0
1 -64 59 0
1 64 118 0
1 -64 45 0
1 -126 59 0
1 -126 -112 0
1 126 -45 0
1 -126 127 0
1 -126 -123 0
1 124 61 0
1 -124 -63 0
1 124 -128 0
1 -124 -129 0
1 -118 124 0
1 118 126 0
1 118 -130 0
1 -118 -64 0
1 118 -53 0
1 -123 -126 0
1 -123 -131 0
1 -123 132 0
1 -123 120 0
1 -123 53 0
1 -123 -133 0
1 117 121 0
1 -117 -130 0
1 -117 64 0
1 117 -53 0
1 57 124 0
1 -57 59 0
1 -57 -55 0
1 -57 118 0
1 57 127 0
1 -60 -124 0
1 -60 -125 0
1 -60 -59 0
1 -60 -55 0
1 60 -57 0
1 -60 127 0
1 -76 -134 0
1 76 -56 0
1 -76 -55 0
1 -76 132 0
1 76 58 0
1 76 129 0
1 -129 134 0
1 -129 65 0
1 129 133 0
1 -134 135 0
1 134 127 0
1 134 136 0
1 134 -72 0
1 -127 -60 0
1 127 126 0
1 127 137 0
1 -127 -76 0
1 -127 -57 0
1 127 41 0
1 127 72 0
1 125 -138 0
1 -125 136 0
1 -125 139 0
1 -125 -128 0
1 140 126 0
1 -140 -141 0
1 140 -142 0
1 140 -128 0
1 -140 129 0
1 -69 134 0
1 -69 -56 0
1 69 -55 0
1 -69 130 0
1 -69 65 0
1 -69 68 0
1 72 -66 0
1 72 -69 0
1 -72 -58 0
1 137 134 0
1 -137 -56 0
1 137 -82 0
1 137 -58 0
1 137 -68 0
1 86 56 0
1 86 -70 0
1 -56 -58 0
1 56 -44 0
1 56 84 0
1 -58 86 0
1 58 72 0
1 62 143 0
1 62 144 0
1 -62 -145 0
1 -62 -146 0
1 -62 -147 0
1 -62 -148 0
1 -62 -72 0
1 -147 144 0
1 147 45 0
1 -147 -148 0
1 -97 -56 0
1 97 -77 0
1 -97 -79 0
1 97 -73 0
1 84 97 0
1 -84 -71 0
1 -84 -70 0
1 -84 -68 0
1 94 -87 0
1 -94 149 0
1 -94 -80 0
1 94 79 0
1 94 58 0
1 96 94 0
1 96 56 0
1 96 149 0
1 96 -148 0
1 -96 -58 0
1 -96 150 0
1 -70 -151 0
1 -70 -97 0
1 -70 137 0
1 70 -66 0
1 -150 70 0
1 -150 96 0
1 -150 -86 0
1 150 -67 0
1 71 94 0
1 71 73 0
1 71 146 0
1 73 -97 0
1 73 -152 0
1 -73 -146 0
1 -73 -96 0
1 -73 84 0
1 -73 65 0
1 -151 -81 0
1 -151 -80 0
1 -95 81 0
1 95 -27 0
1 -95 79 0
1 -95 25 0
1 -153 -154 0
1 -153 104 0
1 153 -80 0
1 -153 150 0
1 -155 -81 0
1 -155 -153 0
1 -80 -156 0
1 80 -157 0
1 -80 77 0
1 -80 158 0
1 81 -11 0
1 81 153 0
1 -81 -159 0
1 -81 155 0
1 -81 -80 0
1 81 158 0
1 -149 -160 0
1 -149 153 0
1 -149 -94 0
1 161 160 0
1 161 -151 0
1 -161 94 0
1 -161 -159 0
1 161 -149 0
1 -161 -95 0
1 -161 162 0
1 101 160 0
1 -101 -154 0
1 101 -100 0
1 101 -89 0
1 157 -81 0
1 157 -163 0
1 -157 -100 0
1 -164 81 0
1 -164 80 0
1 -164 -102 0
1 -156 -154 0
1 156 92 0
1 156 165 0
1 156 80 0
1 -91 156 0
1 -91 157 0
1 -91 -155 0
1 91 166 0
1 91 -164 0
1 -92 155 0
1 92 91 0
1 -163 -154 0
1 163 -157 0
1 -154 -163 0
1 -167 165 0
1 -167 -102 0
1 -168 -165 0
1 -169 170 0
1 -102 164 0
1 -103 -102 0
1 103 169 0
1 105 169 0
1 -165 104 0
1 -120 -117 0
1 -120 57 0
1 -120 115 0
1 -121 171 0
1 -121 117 0
1 121 119 0
1 132 171 0
1 132 122 0
1 -132 172 0
1 -132 113 0
1 133 -117 0
1 -133 113 0
1 133 -129 0
1 113 130 0
1 113 -132 0
1 -113 -120 0
1 113 -107 0
1 113 -133 0
1 173 141 0
1 -173 113 0
1 171 -121 0
1 171 108 0
1 -171 132 0
1 -171 -120 0
1 -171 -133 0
1 130 124 0
1 130 125 0
1 130 122 0
1 -130 113 0
1 -128 -123 0
1 128 122 0
1 -128 140 0
1 128 72 0
1 128 -174 0
1 141 175 0
1 -141 125 0
1 -141 -173 0
1 -141 -176 0
1 -141 -177 0
1 -139 -175 0
1 139 122 0
1 139 141 0
1 -139 140 0
1 139 113 0
1 -139 86 0
1 -139 -174 0
1 174 -144 0
1 -174 -135 0
1 174 -130 0
1 174 -139 0
1 174 133 0
1 -176 -130 0
1 -176 178 0
1 176 -136 0
1 -176 128 0
1 176 133 0
1 -179 -180 0
1 179 122 0
1 179 -181 0
1 179 -128 0
1 122 -180 0
1 -122 -116 0
1 -122 -141 0
1 -122 -132 0
1 122 178 0
1 135 -175 0
1 -135 97 0
1 135 177 0
1 135 -182 0
1 -135 136 0
1 -135 174 0
1 136 -125 0
1 -136 -135 0
1 136 182 0
1 -136 147 0
1 -136 -174 0
1 136 -131 0
1 -144 -175 0
1 -144 -176 0
1 144 177 0
1 -144 182 0
1 144 142 0
1 144 131 0
1 148 176 0
1 -148 96 0
1 148 131 0
1 -175 183 0
1 -175 -184 0
1 175 144 0
1 -175 -185 0
1 175 -136 0
1 -182 -175 0
1 -182 -143 0
1 -182 -186 0
1 182 -146 0
1 -182 136 0
1 -131 -187 0
1 -131 -135 0
1 131 185 0
1 131 -148 0
1 -177 187 0
1 -177 -180 0
1 177 141 0
1 -177 117 0
1 -177 -188 0
1 -177 -185 0
1 -143 -138 0
1 143 -62 0
1 -143 142 0
1 143 -189 0
1 -146 175 0
1 146 190 0
1 -146 62 0
1 146 -71 0
1 146 178 0
1 183 187 0
1 -183 -145 0
1 -183 -186 0
1 183 -142 0
1 -186 -190 0
1 -186 145 0
1 -186 191 0
1 186 -182 0
1 -186 -155 0
1 186 142 0
1 -186 -73 0
1 190 134 0
1 -190 -144 0
1 -190 -192 0
1 -190 148 0
1 189 -144 0
1 -189 -192 0
1 138 -193 0
1 138 -183 0
1 138 -125 0
1 138 -143 0
1 -138 -194 0
1 142 -183 0
1 142 143 0
1 -142 186 0
1 142 -140 0
1 -142 -146 0
1 142 -148 0
1 -160 -190 0
1 -160 71 0
1 160 152 0
1 160 149 0
1 -160 195 0
1 -160 150 0
1 152 190 0
1 -152 -145 0
1 152 -157 0
1 152 -149 0
1 152 -195 0
1 -152 150 0
1 162 193 0
1 162 -196 0
1 162 -149 0
1 -162 -195 0
1 162 -197 0
1 -192 -191 0
1 192 194 0
1 192 -149 0
1 192 197 0
1 192 161 0
1 191 198 0
1 191 170 0
1 -191 159 0
1 191 186 0
1 -191 -158 0
1 -198 160 0
1 198 183 0
1 198 159 0
1 -198 -199 0
1 -145 160 0
1 145 62 0
1 145 -200 0
1 145 186 0
1 -195 200 0
1 -195 152 0
1 159 -168 0
1 159 -163 0
1 -199 -170 0
1 -199 196 0
1 -199 163 0
1 -199 -197 0
1 -170 191 0
1 -170 -196 0
1 -170 -198 0
1 -201 170 0
1 201 -159 0
1 201 -70 0
1 201 202 0
1 202 -170 0
1 -202 159 0
1 -202 201 0
1 202 158 0
1 196 -170 0
1 196 71 0
1 196 197 0
1 196 199 0
1 -196 162 0
1 197 -196 0
1 197 -73 0
1 -197 199 0
1 -180 -176 0
1 180 178 0
1 -180 203 0
1 -180 -174 0
1 178 122 0
1 -178 146 0
1 -187 204 0
1 187 177 0
1 187 205 0
1 206 177 0
1 -206 186 0
1 -207 -208 0
1 -207 185 0
1 -208 -209 0
1 -208 -194 0
1 203 180 0
1 -203 -206 0
1 210 -171 0
1 -210 -206 0
1 209 -211 0
1 -209 177 0
1 -209 -182 0
1 -209 142 0
1 -209 -131 0
1 -185 175 0
1 185 -209 0
1 185 -138 0
1 185 182 0
1 193 -184 0
1 -193 138 0
1 193 -188 0
1 -194 -142 0
1 -194 207 0
1 205 193 0
1 -205 209 0
1 205 187 0
1 -205 -204 0
1 -211 -209 0
1 211 -122 0
1 -211 194 0
1 212 213 0
1 -212 -188 0
1 212 142 0
1 -214 -213 0
1 214 -145 0
1 214 204 0
1 -214 205 0
1 184 175 0
1 184 -200 0
1 -184 -215 0
1 215 -182 0
1 213 -131 0
1 188 193 0
1 -188 177 0
1 -188 214 0
